param n := 250;
param c := 1500
param : V : p w :=
   0	  74	  64
   1	  52	  42
   2	  96	  86
   3	  75	  65
   4	  57	  47
   5	  78	  68
   6	  30	  20
   7	  55	  45
   8	  79	  69
   9	  88	  78
  10	  54	  44
  11	 106	  96
  12	  60	  50
  13	  37	  27
  14	  68	  58
  15	  65	  55
  16	  91	  81
  17	  97	  87
  18	  86	  76
  19	  48	  38
  20	  89	  79
  21	  81	  71
  22	  70	  60
  23	  86	  76
  24	 101	  91
  25	  79	  69
  26	  87	  77
  27	  67	  57
  28	  43	  33
  29	  32	  22
  30	  86	  76
  31	  61	  51
  32	  76	  66
  33	 100	  90
  34	  44	  34
  35	  56	  46
  36	  84	  74
  37	  72	  62
  38	 103	  93
  39	  84	  74
  40	  39	  29
  41	  32	  22
  42	  83	  73
  43	  36	  26
  44	  82	  72
  45	  51	  41
  46	 101	  91
  47	  98	  88
  48	 105	  95
  49	  45	  35
  50	  94	  84
  51	  42	  32
  52	  69	  59
  53	  66	  56
  54	  94	  84
  55	  81	  71
  56	  88	  78
  57	  92	  82
  58	  88	  78
  59	  62	  52
  60	  81	  71
  61	  36	  26
  62	  76	  66
  63	  94	  84
  64	  86	  76
  65	 105	  95
  66	  90	  80
  67	  60	  50
  68	  63	  53
  69	  40	  30
  70	  92	  82
  71	  48	  38
  72	  55	  45
  73	 109	  99
  74	  61	  51
  75	 108	  98
  76	 110	 100
  77	  98	  88
  78	  91	  81
  79	  87	  77
  80	 109	  99
  81	 107	  97
  82	  41	  31
  83	  64	  54
  84	  57	  47
  85	  55	  45
  86	  46	  36
  87	 106	  96
  88	 106	  96
  89	  84	  74
  90	  87	  77
  91	 108	  98
  92	  79	  69
  93	  32	  22
  94	  50	  40
  95	  49	  39
  96	  91	  81
  97	 100	  90
  98	  83	  73
  99	  94	  84
 100	  63	  53
 101	  83	  73
 102	  91	  81
 103	  61	  51
 104	  48	  38
 105	  53	  43
 106	  74	  64
 107	  38	  28
 108	  93	  83
 109	  38	  28
 110	  76	  66
 111	  32	  22
 112	  66	  56
 113	  71	  61
 114	  82	  72
 115	  79	  69
 116	  65	  55
 117	  30	  20
 118	  60	  50
 119	  62	  52
 120	 105	  95
 121	  99	  89
 122	  42	  32
 123	  70	  60
 124	  39	  29
 125	 100	  90
 126	  30	  20
 127	 100	  90
 128	  51	  41
 129	  47	  37
 130	 105	  95
 131	  30	  20
 132	  94	  84
 133	  43	  33
 134	  38	  28
 135	  50	  40
 136	 101	  91
 137	  49	  39
 138	  73	  63
 139	  76	  66
 140	  39	  29
 141	  84	  74
 142	 107	  97
 143	  51	  41
 144	  91	  81
 145	  63	  53
 146	  32	  22
 147	  42	  32
 148	 101	  91
 149	  71	  61
 150	  43	  33
 151	 101	  91
 152	  65	  55
 153	  66	  56
 154	  67	  57
 155	  54	  44
 156	  70	  60
 157	  65	  55
 158	 102	  92
 159	  49	  39
 160	  48	  38
 161	 110	 100
 162	  40	  30
 163	  75	  65
 164	  32	  22
 165	  88	  78
 166	  94	  84
 167	  42	  32
 168	  61	  51
 169	  62	  52
 170	  57	  47
 171	  72	  62
 172	  73	  63
 173	  35	  25
 174	  52	  42
 175	  69	  59
 176	  34	  24
 177	  98	  88
 178	  71	  61
 179	  81	  71
 180	  33	  23
 181	  58	  48
 182	  88	  78
 183	  95	  85
 184	 102	  92
 185	  49	  39
 186	  41	  31
 187	  86	  76
 188	  97	  87
 189	  64	  54
 190	  71	  61
 191	  76	  66
 192	  50	  40
 193	  32	  22
 194	  84	  74
 195	 109	  99
 196	 106	  96
 197	  83	  73
 198	  34	  24
 199	  53	  43
 200	 103	  93
 201	  57	  47
 202	  61	  51
 203	  32	  22
 204	  59	  49
 205	  49	  39
 206	  31	  21
 207	  82	  72
 208	 103	  93
 209	  82	  72
 210	  59	  49
 211	  78	  68
 212	  81	  71
 213	  92	  82
 214	  54	  44
 215	  35	  25
 216	  92	  82
 217	  84	  74
 218	  69	  59
 219	  38	  28
 220	  43	  33
 221	  71	  61
 222	 100	  90
 223	 107	  97
 224	  72	  62
 225	  52	  42
 226	 110	 100
 227	  60	  50
 228	  41	  31
 229	  94	  84
 230	  91	  81
 231	  37	  27
 232	  55	  45
 233	  94	  84
 234	  64	  54
 235	  44	  34
 236	  89	  79
 237	 110	 100
 238	  73	  63
 239	  58	  48
 240	  78	  68
 241	  56	  46
 242	  84	  74
 243	  75	  65
 244	  45	  35
 245	  76	  66
 246	  63	  53
 247	  37	  27
 248	  80	  70
 249	  96	  86
;

set E :=
   0	  11
   0	  13
   0	  22
   0	  25
   0	  31
   0	  33
   0	  44
   0	  55
   0	  60
   0	  63
   0	  69
   0	  80
   0	  85
   0	  97
   0	 110
   0	 127
   0	 145
   0	 151
   0	 153
   0	 173
   0	 175
   0	 185
   0	 189
   0	 190
   0	 223
   0	 224
   0	 247
   0	 248
   0	 249
   1	  20
   1	  27
   1	  29
   1	  43
   1	  57
   1	  58
   1	  62
   1	  72
   1	  85
   1	  96
   1	 110
   1	 114
   1	 117
   1	 132
   1	 139
   1	 144
   1	 151
   1	 167
   1	 193
   1	 196
   1	 197
   1	 205
   1	 206
   1	 243
   2	   8
   2	  12
   2	  20
   2	  48
   2	  49
   2	  52
   2	  63
   2	  67
   2	  75
   2	 113
   2	 116
   2	 120
   2	 131
   2	 158
   2	 173
   2	 187
   2	 200
   2	 202
   2	 209
   2	 210
   2	 212
   2	 224
   2	 243
   3	  11
   3	  14
   3	  33
   3	  51
   3	  54
   3	  62
   3	  72
   3	  73
   3	  75
   3	  84
   3	 104
   3	 117
   3	 122
   3	 134
   3	 135
   3	 157
   3	 163
   3	 170
   3	 181
   3	 193
   3	 197
   3	 208
   3	 217
   3	 226
   3	 239
   3	 244
   4	  32
   4	  52
   4	  55
   4	  56
   4	  57
   4	  66
   4	  68
   4	  70
   4	  95
   4	  96
   4	 111
   4	 113
   4	 117
   4	 118
   4	 129
   4	 136
   4	 143
   4	 145
   4	 161
   4	 198
   4	 200
   4	 207
   4	 221
   4	 232
   4	 245
   4	 249
   5	  12
   5	  17
   5	  22
   5	  31
   5	  34
   5	  37
   5	  51
   5	  58
   5	  92
   5	  95
   5	 113
   5	 117
   5	 118
   5	 123
   5	 125
   5	 129
   5	 156
   5	 159
   5	 191
   5	 201
   5	 204
   5	 229
   5	 230
   5	 249
   6	  29
   6	  33
   6	  34
   6	  40
   6	  51
   6	  70
   6	  93
   6	  97
   6	 120
   6	 121
   6	 124
   6	 130
   6	 134
   6	 146
   6	 155
   6	 162
   6	 168
   6	 179
   6	 186
   6	 190
   6	 191
   6	 226
   6	 227
   6	 247
   6	 249
   7	  49
   7	  54
   7	  56
   7	  58
   7	  65
   7	  74
   7	  75
   7	  77
   7	 106
   7	 107
   7	 112
   7	 146
   7	 160
   7	 162
   7	 167
   7	 173
   7	 178
   7	 199
   7	 206
   7	 210
   7	 219
   7	 230
   7	 237
   7	 239
   8	  14
   8	  20
   8	  21
   8	  24
   8	  25
   8	  32
   8	  36
   8	  48
   8	  53
   8	  61
   8	  71
   8	  76
   8	 114
   8	 129
   8	 131
   8	 133
   8	 135
   8	 136
   8	 145
   8	 147
   8	 161
   8	 173
   8	 178
   8	 186
   8	 193
   8	 206
   8	 236
   8	 238
   8	 249
   9	  32
   9	  34
   9	  49
   9	  65
   9	  66
   9	  80
   9	  82
   9	  84
   9	  88
   9	 100
   9	 109
   9	 121
   9	 126
   9	 130
   9	 131
   9	 141
   9	 142
   9	 145
   9	 151
   9	 155
   9	 169
   9	 173
   9	 181
   9	 184
   9	 186
   9	 212
   9	 241
  10	  12
  10	  22
  10	  24
  10	  29
  10	  31
  10	  44
  10	  45
  10	  77
  10	  78
  10	 107
  10	 128
  10	 145
  10	 146
  10	 151
  10	 162
  10	 163
  10	 168
  10	 169
  10	 203
  10	 210
  10	 216
  10	 218
  10	 225
  10	 233
  10	 236
  10	 248
  11	  22
  11	  42
  11	  46
  11	  49
  11	  57
  11	  65
  11	  89
  11	 104
  11	 117
  11	 124
  11	 141
  11	 176
  11	 179
  11	 181
  11	 188
  11	 189
  11	 206
  11	 210
  11	 212
  11	 213
  11	 221
  11	 233
  12	  21
  12	  30
  12	  39
  12	  47
  12	  62
  12	  71
  12	  83
  12	  92
  12	 101
  12	 105
  12	 111
  12	 116
  12	 119
  12	 127
  12	 131
  12	 143
  12	 146
  12	 166
  12	 177
  12	 181
  12	 183
  12	 184
  12	 197
  12	 198
  12	 201
  12	 205
  12	 210
  12	 218
  12	 224
  12	 225
  12	 236
  12	 242
  12	 243
  12	 244
  13	  14
  13	  15
  13	  22
  13	  24
  13	  30
  13	  52
  13	  75
  13	  99
  13	 106
  13	 113
  13	 120
  13	 122
  13	 127
  13	 148
  13	 152
  13	 159
  13	 160
  13	 190
  13	 209
  13	 214
  13	 215
  13	 221
  13	 226
  13	 227
  13	 235
  13	 245
  14	  34
  14	  47
  14	  53
  14	  70
  14	  76
  14	  88
  14	  94
  14	 113
  14	 115
  14	 125
  14	 126
  14	 136
  14	 142
  14	 155
  14	 156
  14	 158
  14	 161
  14	 167
  14	 181
  14	 208
  14	 227
  14	 229
  14	 239
  15	  24
  15	  27
  15	  30
  15	  42
  15	  55
  15	  56
  15	  83
  15	 131
  15	 155
  15	 160
  15	 170
  15	 173
  15	 192
  15	 213
  15	 215
  15	 218
  16	  19
  16	  26
  16	  36
  16	  42
  16	  45
  16	  46
  16	  50
  16	  57
  16	  59
  16	  85
  16	  86
  16	  96
  16	 101
  16	 104
  16	 110
  16	 118
  16	 120
  16	 149
  16	 157
  16	 160
  16	 182
  16	 186
  16	 199
  16	 201
  16	 225
  16	 229
  16	 231
  16	 233
  16	 234
  17	  43
  17	  49
  17	  63
  17	  64
  17	  66
  17	  70
  17	  71
  17	  76
  17	  78
  17	  91
  17	  95
  17	 104
  17	 111
  17	 116
  17	 124
  17	 126
  17	 127
  17	 128
  17	 136
  17	 141
  17	 147
  17	 154
  17	 156
  17	 158
  17	 168
  17	 184
  17	 205
  17	 207
  17	 236
  17	 241
  17	 242
  18	  37
  18	  53
  18	  56
  18	  59
  18	  65
  18	  73
  18	  83
  18	  92
  18	  93
  18	  95
  18	 102
  18	 153
  18	 158
  18	 161
  18	 188
  18	 191
  18	 209
  18	 217
  18	 228
  18	 233
  18	 234
  19	  31
  19	  36
  19	  49
  19	  61
  19	  64
  19	  65
  19	  84
  19	  88
  19	 145
  19	 161
  19	 187
  19	 203
  19	 207
  19	 214
  19	 227
  19	 236
  20	  28
  20	  31
  20	  51
  20	  53
  20	  63
  20	  72
  20	  82
  20	  89
  20	  99
  20	 103
  20	 109
  20	 110
  20	 112
  20	 128
  20	 129
  20	 152
  20	 159
  20	 172
  20	 173
  20	 177
  20	 183
  20	 185
  20	 191
  20	 199
  20	 200
  20	 207
  20	 212
  20	 237
  20	 244
  21	  34
  21	  40
  21	  45
  21	  47
  21	  50
  21	  51
  21	  54
  21	  66
  21	  79
  21	  93
  21	 106
  21	 126
  21	 136
  21	 144
  21	 149
  21	 161
  21	 183
  21	 213
  21	 244
  22	  23
  22	  24
  22	  27
  22	  42
  22	  43
  22	  61
  22	  62
  22	  70
  22	  72
  22	  89
  22	  96
  22	 101
  22	 104
  22	 112
  22	 120
  22	 121
  22	 123
  22	 124
  22	 144
  22	 162
  22	 163
  22	 172
  22	 177
  22	 185
  22	 212
  22	 216
  22	 217
  22	 231
  22	 242
  22	 245
  23	  26
  23	  30
  23	  44
  23	  48
  23	  56
  23	  66
  23	  89
  23	 106
  23	 112
  23	 131
  23	 132
  23	 134
  23	 146
  23	 148
  23	 193
  23	 204
  23	 223
  23	 245
  23	 249
  24	  51
  24	  52
  24	  60
  24	  63
  24	  64
  24	  65
  24	  66
  24	  67
  24	  78
  24	  99
  24	 102
  24	 108
  24	 119
  24	 120
  24	 122
  24	 136
  24	 140
  24	 146
  24	 159
  24	 169
  24	 172
  24	 178
  24	 182
  24	 208
  25	  28
  25	  32
  25	  33
  25	  35
  25	  42
  25	  53
  25	  62
  25	  80
  25	  83
  25	  84
  25	  85
  25	  92
  25	  93
  25	 127
  25	 130
  25	 134
  25	 141
  25	 160
  25	 166
  25	 183
  25	 187
  25	 189
  25	 194
  25	 201
  25	 205
  25	 229
  25	 230
  25	 233
  26	  30
  26	  38
  26	  61
  26	  73
  26	  77
  26	  99
  26	 101
  26	 136
  26	 152
  26	 160
  26	 165
  26	 196
  26	 206
  26	 207
  26	 214
  26	 221
  27	  40
  27	  51
  27	  57
  27	  98
  27	 107
  27	 139
  27	 141
  27	 144
  27	 145
  27	 146
  27	 152
  27	 165
  27	 167
  27	 174
  27	 205
  27	 211
  27	 215
  27	 229
  27	 233
  27	 234
  27	 242
  27	 244
  28	  29
  28	  43
  28	  49
  28	  56
  28	  86
  28	  96
  28	 100
  28	 104
  28	 108
  28	 113
  28	 122
  28	 131
  28	 145
  28	 153
  28	 171
  28	 180
  28	 182
  28	 193
  28	 197
  28	 202
  28	 204
  28	 216
  28	 240
  28	 243
  28	 246
  29	  34
  29	  55
  29	  67
  29	  75
  29	  82
  29	  87
  29	  91
  29	 132
  29	 142
  29	 145
  29	 149
  29	 155
  29	 177
  29	 181
  29	 184
  29	 193
  29	 198
  29	 209
  30	  37
  30	  40
  30	  41
  30	  50
  30	  55
  30	  70
  30	  97
  30	 120
  30	 123
  30	 129
  30	 141
  30	 145
  30	 160
  30	 167
  30	 181
  30	 185
  30	 223
  30	 235
  30	 247
  31	  41
  31	  52
  31	  53
  31	  73
  31	  76
  31	  93
  31	  95
  31	  99
  31	 100
  31	 103
  31	 123
  31	 136
  31	 150
  31	 175
  31	 181
  31	 195
  31	 224
  31	 233
  31	 235
  32	  36
  32	  41
  32	  54
  32	  55
  32	  59
  32	  63
  32	  65
  32	  70
  32	  72
  32	  83
  32	  85
  32	  95
  32	  96
  32	 108
  32	 109
  32	 111
  32	 117
  32	 130
  32	 133
  32	 137
  32	 140
  32	 155
  32	 159
  32	 181
  32	 196
  32	 206
  32	 210
  32	 213
  32	 220
  32	 230
  32	 233
  32	 247
  32	 249
  33	  34
  33	  35
  33	  57
  33	  58
  33	  62
  33	  87
  33	  98
  33	 110
  33	 115
  33	 139
  33	 156
  33	 169
  33	 174
  33	 178
  33	 181
  33	 190
  33	 195
  33	 220
  33	 226
  33	 245
  34	  35
  34	  56
  34	  58
  34	  69
  34	  71
  34	  75
  34	 115
  34	 118
  34	 123
  34	 126
  34	 132
  34	 141
  34	 147
  34	 153
  34	 154
  34	 162
  34	 164
  34	 168
  34	 174
  34	 180
  34	 185
  34	 186
  34	 196
  34	 199
  34	 200
  34	 204
  34	 209
  34	 216
  34	 231
  35	  36
  35	  49
  35	  57
  35	  63
  35	  94
  35	 106
  35	 108
  35	 111
  35	 125
  35	 128
  35	 138
  35	 159
  35	 166
  35	 167
  35	 189
  35	 234
  35	 240
  35	 241
  35	 244
  36	  93
  36	 162
  36	 176
  36	 204
  36	 215
  36	 224
  36	 229
  37	  45
  37	  73
  37	  84
  37	  90
  37	  91
  37	  99
  37	 106
  37	 110
  37	 111
  37	 112
  37	 127
  37	 128
  37	 129
  37	 133
  37	 141
  37	 146
  37	 170
  37	 185
  37	 186
  37	 199
  37	 205
  37	 238
  38	  41
  38	  44
  38	  73
  38	  81
  38	  85
  38	 111
  38	 138
  38	 158
  38	 161
  38	 184
  38	 208
  38	 209
  38	 221
  38	 225
  38	 234
  39	  55
  39	  64
  39	  86
  39	 102
  39	 106
  39	 112
  39	 114
  39	 122
  39	 133
  39	 134
  39	 145
  39	 168
  39	 178
  39	 199
  39	 200
  39	 213
  39	 232
  39	 235
  40	  41
  40	  54
  40	  57
  40	  63
  40	  68
  40	  69
  40	  75
  40	  76
  40	  82
  40	  85
  40	  87
  40	 103
  40	 106
  40	 108
  40	 123
  40	 127
  40	 172
  40	 184
  40	 196
  40	 202
  40	 207
  40	 213
  40	 214
  40	 215
  40	 223
  40	 228
  40	 247
  40	 248
  41	  45
  41	  66
  41	  74
  41	  79
  41	  83
  41	  88
  41	  90
  41	 117
  41	 118
  41	 120
  41	 134
  41	 150
  41	 153
  41	 156
  41	 168
  41	 179
  41	 197
  41	 202
  41	 204
  41	 215
  41	 225
  41	 229
  41	 231
  42	  44
  42	  47
  42	  49
  42	  54
  42	  56
  42	  57
  42	  78
  42	  88
  42	  91
  42	  94
  42	 100
  42	 117
  42	 143
  42	 149
  42	 207
  42	 228
  42	 233
  42	 239
  42	 247
  43	  49
  43	  54
  43	  62
  43	  69
  43	  91
  43	  92
  43	 105
  43	 111
  43	 130
  43	 131
  43	 140
  43	 145
  43	 148
  43	 150
  43	 165
  43	 172
  43	 174
  43	 199
  43	 203
  43	 211
  43	 236
  44	  47
  44	  58
  44	  59
  44	  79
  44	  81
  44	  87
  44	  96
  44	 102
  44	 111
  44	 115
  44	 118
  44	 122
  44	 140
  44	 142
  44	 147
  44	 148
  44	 153
  44	 160
  44	 167
  44	 171
  44	 175
  44	 240
  45	  46
  45	  61
  45	  65
  45	  97
  45	 100
  45	 101
  45	 134
  45	 137
  45	 163
  45	 178
  45	 182
  45	 188
  45	 189
  46	  50
  46	  61
  46	  66
  46	  73
  46	  74
  46	  83
  46	  90
  46	  99
  46	 100
  46	 108
  46	 124
  46	 126
  46	 131
  46	 174
  46	 182
  46	 193
  46	 197
  46	 211
  46	 212
  46	 243
  47	  65
  47	  77
  47	  84
  47	  88
  47	 104
  47	 129
  47	 130
  47	 132
  47	 140
  47	 155
  47	 166
  47	 169
  47	 183
  47	 195
  47	 197
  47	 203
  47	 213
  47	 217
  47	 219
  47	 226
  47	 238
  48	  56
  48	  63
  48	  85
  48	  96
  48	  97
  48	 103
  48	 108
  48	 115
  48	 125
  48	 138
  48	 141
  48	 144
  48	 153
  48	 164
  48	 167
  48	 168
  48	 191
  48	 193
  48	 201
  48	 204
  48	 219
  48	 236
  48	 239
  49	  50
  49	  61
  49	  73
  49	  89
  49	  90
  49	  91
  49	 101
  49	 116
  49	 118
  49	 135
  49	 149
  49	 162
  49	 166
  49	 185
  49	 192
  49	 193
  49	 219
  50	  64
  50	  68
  50	  79
  50	  80
  50	  93
  50	 103
  50	 110
  50	 113
  50	 128
  50	 172
  50	 180
  50	 183
  50	 195
  50	 197
  50	 219
  50	 236
  50	 240
  50	 247
  51	  52
  51	  53
  51	  60
  51	  63
  51	  66
  51	  80
  51	 100
  51	 114
  51	 115
  51	 140
  51	 141
  51	 159
  51	 173
  51	 174
  51	 176
  51	 184
  51	 194
  51	 204
  51	 235
  51	 239
  52	  64
  52	  73
  52	  77
  52	  79
  52	  90
  52	  91
  52	  97
  52	  98
  52	 115
  52	 124
  52	 132
  52	 153
  52	 157
  52	 161
  52	 162
  52	 177
  52	 182
  52	 184
  52	 192
  52	 194
  52	 196
  52	 204
  52	 210
  52	 212
  52	 216
  52	 232
  52	 235
  52	 237
  53	  64
  53	  72
  53	  74
  53	  79
  53	  95
  53	  99
  53	 124
  53	 131
  53	 132
  53	 146
  53	 148
  53	 180
  53	 185
  53	 194
  53	 201
  53	 209
  53	 214
  53	 218
  53	 224
  53	 246
  53	 247
  54	  63
  54	  76
  54	  81
  54	  87
  54	  90
  54	  96
  54	  97
  54	 119
  54	 122
  54	 130
  54	 138
  54	 141
  54	 147
  54	 171
  54	 189
  54	 190
  54	 192
  54	 201
  54	 232
  54	 244
  55	  67
  55	  89
  55	  94
  55	  95
  55	  97
  55	  98
  55	 120
  55	 135
  55	 142
  55	 146
  55	 148
  55	 150
  55	 160
  55	 163
  55	 183
  55	 196
  55	 198
  55	 220
  55	 238
  55	 247
  56	  65
  56	  76
  56	  88
  56	  97
  56	 119
  56	 135
  56	 162
  56	 164
  56	 171
  56	 177
  56	 193
  56	 195
  56	 204
  56	 209
  56	 236
  56	 247
  57	  71
  57	  78
  57	 102
  57	 113
  57	 115
  57	 130
  57	 131
  57	 148
  57	 152
  57	 156
  57	 164
  57	 172
  57	 190
  57	 193
  57	 200
  57	 204
  57	 231
  58	  72
  58	  74
  58	  86
  58	 118
  58	 127
  58	 130
  58	 136
  58	 142
  58	 152
  58	 162
  58	 169
  58	 190
  58	 192
  58	 195
  58	 196
  58	 198
  58	 212
  58	 227
  58	 245
  59	  71
  59	  74
  59	  79
  59	  82
  59	  86
  59	 118
  59	 122
  59	 124
  59	 143
  59	 145
  59	 150
  59	 163
  59	 170
  59	 183
  59	 184
  59	 190
  59	 196
  59	 199
  59	 205
  59	 214
  59	 221
  59	 230
  59	 237
  60	  64
  60	  65
  60	  68
  60	  75
  60	  81
  60	  95
  60	 112
  60	 114
  60	 116
  60	 121
  60	 145
  60	 146
  60	 153
  60	 173
  60	 203
  60	 209
  60	 220
  60	 227
  60	 240
  60	 245
  61	  74
  61	  75
  61	  84
  61	 118
  61	 122
  61	 129
  61	 139
  61	 150
  61	 164
  61	 178
  61	 204
  61	 209
  61	 221
  61	 225
  61	 240
  61	 242
  62	  71
  62	  85
  62	  99
  62	 113
  62	 134
  62	 169
  62	 176
  62	 177
  62	 185
  62	 200
  62	 204
  62	 218
  62	 224
  62	 231
  63	  68
  63	  73
  63	  95
  63	 106
  63	 155
  63	 159
  63	 174
  63	 191
  63	 197
  63	 206
  63	 214
  63	 229
  63	 234
  63	 237
  63	 241
  64	  93
  64	 104
  64	 121
  64	 146
  64	 160
  64	 166
  64	 169
  64	 188
  64	 207
  64	 218
  64	 227
  64	 233
  64	 246
  65	  73
  65	  88
  65	  91
  65	 106
  65	 128
  65	 133
  65	 134
  65	 152
  65	 173
  65	 174
  65	 178
  65	 184
  65	 186
  65	 196
  65	 197
  65	 198
  65	 207
  65	 216
  65	 243
  66	  67
  66	  71
  66	  73
  66	  82
  66	  86
  66	  89
  66	  98
  66	 105
  66	 110
  66	 120
  66	 122
  66	 132
  66	 137
  66	 147
  66	 149
  66	 157
  66	 165
  66	 168
  66	 178
  66	 188
  66	 199
  66	 201
  66	 211
  66	 214
  66	 219
  66	 229
  66	 239
  67	  72
  67	  74
  67	  80
  67	  82
  67	  96
  67	 101
  67	 108
  67	 134
  67	 139
  67	 142
  67	 151
  67	 176
  67	 181
  67	 193
  67	 202
  67	 205
  67	 220
  67	 222
  67	 237
  67	 242
  67	 249
  68	  70
  68	  83
  68	  87
  68	  99
  68	 102
  68	 126
  68	 156
  68	 159
  68	 174
  68	 178
  68	 180
  68	 224
  68	 249
  69	  94
  69	 104
  69	 106
  69	 110
  69	 113
  69	 119
  69	 140
  69	 151
  69	 158
  69	 171
  69	 194
  69	 197
  69	 212
  69	 217
  69	 227
  69	 235
  69	 240
  70	  77
  70	  93
  70	 103
  70	 105
  70	 122
  70	 126
  70	 145
  70	 159
  70	 162
  70	 163
  70	 168
  70	 184
  70	 185
  70	 200
  70	 217
  70	 222
  70	 232
  70	 236
  71	  86
  71	  96
  71	 104
  71	 120
  71	 136
  71	 153
  71	 154
  71	 156
  71	 163
  71	 168
  71	 169
  71	 198
  71	 230
  71	 240
  71	 245
  71	 246
  71	 247
  72	  76
  72	  98
  72	 101
  72	 106
  72	 112
  72	 123
  72	 130
  72	 132
  72	 136
  72	 145
  72	 148
  72	 160
  72	 165
  72	 166
  72	 169
  72	 170
  72	 177
  72	 185
  72	 190
  72	 207
  72	 212
  72	 216
  72	 223
  72	 228
  72	 234
  72	 235
  73	 117
  73	 118
  73	 129
  73	 150
  73	 153
  73	 159
  73	 164
  73	 171
  73	 178
  73	 181
  73	 217
  73	 218
  73	 220
  73	 225
  74	  89
  74	 106
  74	 109
  74	 116
  74	 141
  74	 147
  74	 157
  74	 158
  74	 176
  74	 193
  74	 201
  74	 210
  74	 218
  74	 230
  74	 241
  74	 248
  75	 105
  75	 120
  75	 124
  75	 125
  75	 127
  75	 138
  75	 144
  75	 147
  75	 155
  75	 178
  75	 181
  75	 182
  75	 197
  75	 223
  75	 227
  75	 229
  75	 237
  75	 239
  76	  98
  76	 105
  76	 112
  76	 113
  76	 116
  76	 126
  76	 129
  76	 133
  76	 161
  76	 165
  76	 176
  76	 180
  76	 182
  76	 208
  76	 236
  76	 238
  76	 247
  77	  87
  77	 104
  77	 105
  77	 121
  77	 129
  77	 131
  77	 132
  77	 154
  77	 178
  77	 181
  77	 182
  77	 188
  77	 225
  77	 248
  78	  91
  78	  92
  78	  98
  78	 102
  78	 106
  78	 107
  78	 112
  78	 115
  78	 119
  78	 120
  78	 126
  78	 127
  78	 153
  78	 158
  78	 173
  78	 178
  78	 189
  78	 207
  78	 216
  78	 221
  78	 229
  78	 247
  79	  86
  79	  93
  79	  96
  79	  99
  79	 100
  79	 111
  79	 123
  79	 124
  79	 138
  79	 147
  79	 152
  79	 157
  79	 162
  79	 181
  79	 185
  79	 203
  79	 207
  79	 234
  80	  84
  80	 102
  80	 114
  80	 122
  80	 126
  80	 136
  80	 140
  80	 162
  80	 167
  80	 177
  80	 182
  80	 184
  80	 188
  80	 196
  80	 217
  80	 219
  80	 246
  80	 247
  81	  86
  81	  91
  81	 100
  81	 125
  81	 126
  81	 138
  81	 142
  81	 149
  81	 157
  81	 162
  81	 165
  81	 177
  81	 200
  81	 205
  81	 209
  81	 222
  81	 234
  82	  89
  82	 104
  82	 122
  82	 126
  82	 130
  82	 135
  82	 143
  82	 168
  82	 211
  82	 218
  82	 225
  82	 237
  82	 245
  82	 249
  83	  89
  83	  91
  83	 100
  83	 102
  83	 124
  83	 126
  83	 135
  83	 142
  83	 146
  83	 147
  83	 167
  83	 170
  83	 172
  83	 178
  83	 182
  83	 188
  83	 245
  84	  86
  84	  94
  84	 103
  84	 114
  84	 116
  84	 117
  84	 131
  84	 134
  84	 158
  84	 172
  84	 176
  84	 186
  84	 187
  84	 192
  84	 196
  84	 210
  84	 220
  84	 243
  85	  90
  85	 110
  85	 112
  85	 131
  85	 175
  85	 179
  85	 184
  85	 185
  85	 190
  85	 201
  85	 204
  85	 206
  85	 213
  85	 228
  85	 239
  86	  92
  86	 112
  86	 122
  86	 127
  86	 133
  86	 149
  86	 155
  86	 161
  86	 167
  86	 181
  86	 204
  86	 210
  86	 218
  86	 220
  86	 229
  86	 235
  86	 236
  86	 247
  87	 112
  87	 116
  87	 134
  87	 136
  87	 146
  87	 150
  87	 154
  87	 155
  87	 156
  87	 162
  87	 168
  87	 169
  87	 215
  87	 221
  87	 222
  87	 224
  88	  92
  88	  96
  88	 101
  88	 104
  88	 109
  88	 114
  88	 138
  88	 141
  88	 155
  88	 160
  88	 165
  88	 174
  88	 177
  88	 178
  88	 209
  88	 219
  88	 232
  88	 236
  88	 246
  89	  94
  89	 106
  89	 118
  89	 140
  89	 144
  89	 145
  89	 163
  89	 166
  89	 169
  89	 174
  89	 177
  89	 185
  89	 202
  89	 207
  89	 210
  89	 211
  89	 212
  89	 228
  89	 247
  90	  97
  90	 107
  90	 114
  90	 146
  90	 148
  90	 152
  90	 155
  90	 160
  90	 224
  90	 227
  90	 239
  90	 241
  90	 242
  90	 243
  90	 244
  91	  94
  91	 104
  91	 107
  91	 109
  91	 112
  91	 116
  91	 121
  91	 164
  91	 176
  91	 180
  91	 186
  91	 188
  91	 215
  91	 234
  91	 248
  91	 249
  92	 106
  92	 114
  92	 123
  92	 136
  92	 151
  92	 161
  92	 178
  92	 183
  92	 195
  92	 201
  92	 218
  92	 223
  92	 227
  92	 248
  93	 115
  93	 132
  93	 133
  93	 138
  93	 148
  93	 175
  93	 179
  93	 185
  93	 193
  93	 201
  93	 217
  93	 218
  93	 228
  93	 229
  93	 231
  93	 239
  93	 244
  94	 106
  94	 122
  94	 153
  94	 154
  94	 155
  94	 172
  94	 175
  94	 215
  94	 228
  94	 231
  94	 233
  95	 114
  95	 125
  95	 129
  95	 134
  95	 137
  95	 139
  95	 145
  95	 156
  95	 157
  95	 166
  95	 169
  95	 190
  95	 199
  95	 203
  95	 207
  95	 211
  95	 228
  95	 249
  96	 115
  96	 121
  96	 127
  96	 134
  96	 137
  96	 149
  96	 170
  96	 174
  96	 182
  96	 198
  96	 212
  96	 215
  96	 218
  96	 228
  96	 249
  97	 103
  97	 108
  97	 125
  97	 132
  97	 150
  97	 151
  97	 166
  97	 191
  97	 204
  97	 212
  97	 219
  97	 235
  97	 236
  97	 238
  98	 110
  98	 126
  98	 151
  98	 161
  98	 184
  98	 202
  98	 207
  98	 226
  98	 243
  98	 246
  99	 124
  99	 133
  99	 136
  99	 146
  99	 155
  99	 158
  99	 166
  99	 187
  99	 195
  99	 200
  99	 206
  99	 220
  99	 235
 100	 110
 100	 125
 100	 126
 100	 131
 100	 145
 100	 150
 100	 154
 100	 171
 100	 182
 100	 190
 100	 226
 100	 227
 100	 230
 100	 242
 101	 106
 101	 121
 101	 132
 101	 133
 101	 145
 101	 147
 101	 148
 101	 167
 101	 173
 101	 180
 101	 185
 101	 186
 101	 202
 101	 215
 101	 224
 101	 225
 101	 249
 102	 106
 102	 151
 102	 163
 102	 169
 102	 171
 102	 191
 102	 195
 102	 197
 102	 227
 102	 237
 103	 107
 103	 110
 103	 118
 103	 120
 103	 121
 103	 135
 103	 143
 103	 145
 103	 165
 103	 170
 103	 233
 104	 143
 104	 153
 104	 158
 104	 164
 104	 167
 104	 169
 104	 178
 104	 183
 104	 185
 104	 218
 104	 231
 104	 237
 104	 246
 104	 247
 105	 106
 105	 116
 105	 117
 105	 127
 105	 154
 105	 156
 105	 167
 105	 188
 105	 197
 105	 208
 105	 212
 105	 215
 105	 218
 105	 222
 105	 229
 105	 243
 105	 249
 106	 115
 106	 120
 106	 126
 106	 139
 106	 145
 106	 167
 106	 175
 106	 177
 106	 178
 106	 195
 106	 225
 106	 228
 106	 247
 107	 109
 107	 145
 107	 150
 107	 154
 107	 158
 107	 160
 107	 166
 107	 191
 107	 194
 107	 202
 107	 210
 107	 245
 107	 246
 108	 109
 108	 115
 108	 120
 108	 131
 108	 176
 108	 189
 108	 195
 108	 201
 108	 213
 108	 220
 108	 233
 109	 110
 109	 124
 109	 125
 109	 129
 109	 136
 109	 140
 109	 144
 109	 154
 109	 160
 109	 172
 109	 184
 109	 191
 109	 213
 109	 223
 109	 227
 109	 231
 109	 235
 109	 238
 109	 242
 109	 244
 110	 131
 110	 144
 110	 182
 110	 183
 110	 225
 110	 233
 110	 234
 111	 115
 111	 130
 111	 132
 111	 146
 111	 171
 111	 185
 111	 194
 111	 197
 111	 206
 111	 216
 111	 232
 111	 234
 111	 242
 112	 117
 112	 123
 112	 154
 112	 155
 112	 158
 112	 164
 112	 171
 112	 191
 112	 205
 112	 212
 112	 234
 112	 236
 112	 246
 113	 121
 113	 122
 113	 142
 113	 145
 113	 150
 113	 153
 113	 163
 113	 186
 113	 189
 113	 190
 113	 209
 113	 211
 113	 219
 113	 237
 113	 240
 114	 124
 114	 129
 114	 133
 114	 134
 114	 153
 114	 160
 114	 168
 114	 173
 114	 175
 114	 192
 114	 196
 114	 200
 114	 202
 114	 211
 114	 214
 115	 120
 115	 150
 115	 157
 115	 160
 115	 165
 115	 169
 115	 174
 115	 178
 115	 181
 115	 192
 115	 199
 115	 214
 115	 220
 115	 231
 115	 242
 116	 128
 116	 140
 116	 143
 116	 146
 116	 148
 116	 159
 116	 160
 116	 176
 116	 177
 116	 179
 116	 228
 116	 230
 116	 234
 116	 238
 117	 119
 117	 170
 117	 174
 117	 203
 117	 207
 117	 215
 117	 222
 118	 119
 118	 124
 118	 125
 118	 136
 118	 148
 118	 168
 118	 187
 118	 188
 118	 197
 118	 200
 118	 205
 118	 215
 118	 223
 118	 226
 118	 228
 118	 231
 118	 237
 118	 239
 119	 122
 119	 147
 119	 151
 119	 160
 119	 182
 119	 184
 119	 202
 119	 213
 119	 240
 119	 245
 119	 248
 120	 138
 120	 142
 120	 146
 120	 164
 120	 166
 120	 181
 120	 186
 120	 191
 120	 193
 120	 194
 120	 203
 120	 226
 120	 227
 120	 231
 120	 232
 120	 248
 121	 137
 121	 142
 121	 144
 121	 154
 121	 170
 121	 180
 121	 182
 121	 188
 121	 204
 121	 218
 121	 220
 121	 224
 121	 231
 121	 235
 121	 245
 121	 248
 122	 131
 122	 137
 122	 152
 122	 159
 122	 166
 122	 169
 122	 178
 122	 201
 122	 243
 123	 129
 123	 145
 123	 162
 123	 163
 123	 178
 123	 192
 123	 211
 123	 217
 123	 219
 123	 222
 123	 228
 123	 230
 123	 240
 124	 137
 124	 152
 124	 156
 124	 164
 124	 174
 124	 186
 124	 191
 124	 197
 124	 202
 124	 213
 124	 219
 124	 235
 124	 239
 124	 244
 124	 246
 125	 145
 125	 154
 125	 176
 125	 178
 125	 182
 125	 187
 125	 191
 125	 192
 125	 204
 125	 224
 125	 225
 125	 236
 125	 244
 125	 246
 126	 128
 126	 130
 126	 133
 126	 160
 126	 162
 126	 171
 126	 176
 126	 183
 126	 196
 126	 216
 126	 229
 127	 133
 127	 139
 127	 157
 127	 160
 127	 161
 127	 163
 127	 170
 127	 194
 127	 204
 127	 231
 127	 235
 127	 236
 127	 239
 128	 140
 128	 150
 128	 158
 128	 182
 128	 187
 128	 195
 128	 198
 128	 202
 128	 203
 128	 211
 128	 212
 128	 216
 129	 134
 129	 137
 129	 149
 129	 152
 129	 156
 129	 163
 129	 166
 129	 181
 129	 193
 129	 198
 129	 199
 129	 205
 129	 208
 129	 211
 129	 232
 129	 234
 129	 237
 130	 132
 130	 149
 130	 195
 130	 198
 130	 199
 130	 201
 130	 225
 130	 239
 130	 243
 131	 132
 131	 137
 131	 152
 131	 184
 131	 192
 131	 193
 131	 198
 131	 204
 131	 217
 132	 151
 132	 164
 132	 175
 132	 183
 132	 221
 132	 222
 132	 244
 132	 245
 132	 248
 133	 153
 133	 157
 133	 180
 133	 185
 133	 188
 133	 190
 133	 198
 133	 236
 134	 136
 134	 149
 134	 166
 134	 168
 134	 175
 134	 178
 134	 183
 134	 184
 134	 218
 134	 222
 134	 225
 134	 233
 134	 237
 134	 248
 135	 136
 135	 141
 135	 150
 135	 154
 135	 158
 135	 172
 135	 211
 135	 216
 135	 222
 135	 237
 135	 238
 136	 138
 136	 140
 136	 184
 136	 185
 136	 186
 136	 207
 136	 232
 136	 245
 136	 249
 137	 149
 137	 176
 137	 178
 137	 182
 137	 194
 137	 211
 137	 232
 137	 234
 137	 243
 137	 245
 138	 143
 138	 145
 138	 176
 138	 181
 138	 191
 138	 220
 138	 230
 138	 235
 138	 239
 139	 142
 139	 146
 139	 147
 139	 153
 139	 171
 139	 183
 139	 207
 139	 213
 139	 214
 139	 222
 139	 223
 139	 230
 139	 238
 139	 247
 139	 249
 140	 141
 140	 143
 140	 161
 140	 179
 140	 180
 140	 193
 140	 196
 140	 207
 140	 208
 140	 210
 140	 212
 140	 230
 141	 143
 141	 145
 141	 151
 141	 163
 141	 172
 141	 199
 141	 211
 141	 230
 141	 231
 141	 240
 142	 154
 142	 174
 142	 175
 142	 198
 142	 233
 142	 240
 142	 247
 143	 156
 143	 159
 143	 178
 143	 190
 143	 207
 143	 210
 143	 222
 143	 224
 144	 169
 144	 172
 144	 174
 144	 192
 144	 196
 144	 204
 144	 207
 144	 216
 144	 226
 144	 233
 145	 148
 145	 149
 145	 159
 145	 160
 145	 174
 145	 177
 145	 179
 145	 186
 145	 192
 145	 206
 145	 209
 145	 222
 145	 224
 145	 232
 145	 238
 145	 245
 145	 246
 145	 249
 146	 148
 146	 152
 146	 155
 146	 157
 146	 158
 146	 183
 146	 187
 146	 188
 146	 190
 146	 225
 146	 235
 146	 238
 147	 157
 147	 168
 147	 182
 147	 204
 147	 208
 147	 237
 147	 239
 148	 176
 148	 195
 148	 197
 148	 199
 148	 205
 148	 238
 148	 246
 149	 150
 149	 153
 149	 159
 149	 162
 149	 164
 149	 167
 149	 171
 149	 190
 149	 195
 149	 215
 149	 216
 149	 239
 149	 245
 150	 162
 150	 164
 150	 168
 150	 189
 150	 195
 150	 230
 150	 243
 151	 160
 151	 161
 151	 184
 151	 186
 151	 189
 151	 190
 151	 196
 151	 204
 151	 213
 151	 220
 151	 221
 151	 226
 151	 248
 152	 161
 152	 163
 152	 166
 152	 181
 152	 185
 152	 186
 152	 220
 152	 224
 152	 225
 152	 234
 152	 241
 152	 246
 152	 249
 153	 156
 153	 165
 153	 171
 153	 173
 153	 194
 153	 197
 153	 198
 153	 247
 153	 249
 154	 155
 154	 162
 154	 165
 154	 170
 154	 176
 154	 203
 154	 223
 154	 228
 155	 159
 155	 176
 155	 198
 155	 200
 155	 204
 155	 217
 155	 224
 155	 236
 155	 239
 155	 240
 155	 249
 156	 163
 156	 169
 156	 171
 156	 185
 156	 228
 156	 233
 156	 239
 156	 242
 156	 243
 156	 248
 157	 184
 157	 188
 157	 190
 157	 191
 157	 215
 157	 219
 157	 225
 157	 233
 157	 237
 158	 168
 158	 173
 158	 183
 158	 187
 158	 209
 158	 212
 158	 248
 159	 166
 159	 172
 159	 173
 159	 194
 159	 200
 159	 206
 159	 207
 159	 212
 159	 214
 159	 215
 159	 218
 159	 223
 160	 170
 160	 173
 160	 178
 160	 180
 160	 193
 160	 194
 160	 196
 160	 204
 160	 206
 160	 213
 160	 217
 160	 224
 161	 172
 161	 194
 161	 197
 161	 199
 161	 201
 161	 204
 161	 205
 161	 210
 161	 231
 161	 243
 162	 174
 162	 182
 162	 190
 162	 194
 162	 196
 162	 204
 162	 220
 162	 224
 162	 230
 163	 178
 163	 179
 163	 190
 163	 216
 163	 249
 164	 188
 164	 191
 164	 200
 164	 203
 164	 216
 164	 223
 164	 239
 164	 241
 165	 170
 165	 173
 165	 180
 165	 181
 165	 185
 165	 193
 165	 202
 165	 210
 165	 242
 166	 174
 166	 187
 166	 188
 166	 189
 166	 197
 166	 203
 166	 239
 166	 246
 166	 248
 167	 168
 167	 192
 167	 193
 167	 196
 167	 201
 167	 205
 167	 206
 167	 216
 167	 217
 167	 218
 167	 222
 167	 226
 167	 237
 167	 245
 168	 172
 168	 181
 168	 185
 168	 193
 168	 195
 168	 196
 168	 207
 168	 210
 168	 222
 168	 223
 168	 226
 168	 229
 168	 230
 168	 241
 168	 243
 168	 246
 169	 195
 169	 196
 169	 199
 169	 204
 169	 205
 169	 211
 169	 213
 169	 215
 169	 219
 170	 179
 170	 181
 170	 187
 170	 195
 170	 199
 170	 200
 170	 209
 170	 211
 170	 217
 170	 228
 171	 178
 171	 186
 171	 220
 171	 223
 172	 174
 172	 200
 172	 207
 172	 211
 172	 214
 172	 224
 172	 234
 172	 238
 173	 178
 173	 181
 173	 217
 173	 241
 174	 176
 174	 180
 174	 182
 174	 183
 174	 216
 174	 217
 174	 221
 174	 222
 174	 231
 174	 236
 174	 237
 174	 240
 175	 180
 175	 204
 175	 217
 175	 218
 175	 222
 175	 225
 175	 233
 175	 247
 176	 191
 176	 195
 176	 210
 176	 216
 176	 240
 177	 205
 177	 209
 177	 214
 177	 224
 177	 226
 177	 237
 178	 185
 178	 190
 178	 243
 179	 182
 179	 184
 179	 187
 179	 196
 179	 205
 179	 207
 179	 222
 179	 224
 179	 231
 179	 232
 179	 243
 180	 181
 180	 196
 180	 199
 180	 202
 180	 204
 180	 223
 180	 232
 180	 237
 180	 240
 181	 187
 181	 199
 181	 211
 181	 212
 181	 224
 181	 232
 181	 243
 182	 215
 182	 230
 182	 232
 182	 233
 182	 235
 182	 247
 183	 193
 183	 196
 183	 197
 183	 207
 183	 227
 184	 187
 184	 188
 184	 189
 184	 200
 184	 203
 184	 214
 184	 216
 185	 206
 185	 213
 185	 225
 185	 226
 185	 245
 186	 188
 186	 194
 186	 195
 186	 213
 186	 217
 186	 227
 186	 232
 186	 245
 187	 199
 187	 223
 187	 228
 187	 232
 187	 239
 187	 242
 187	 249
 188	 191
 188	 198
 188	 219
 188	 221
 188	 222
 188	 230
 188	 240
 189	 197
 189	 204
 189	 214
 190	 205
 190	 217
 190	 227
 190	 236
 190	 238
 190	 240
 190	 242
 190	 247
 191	 208
 191	 230
 191	 232
 192	 203
 192	 205
 192	 210
 192	 225
 192	 232
 192	 235
 192	 240
 193	 195
 193	 207
 193	 209
 193	 224
 193	 233
 193	 236
 194	 202
 194	 208
 194	 213
 194	 247
 195	 199
 195	 203
 195	 204
 195	 221
 195	 222
 195	 230
 195	 234
 195	 235
 195	 245
 196	 207
 196	 212
 196	 215
 196	 230
 196	 247
 196	 249
 197	 220
 197	 233
 197	 238
 197	 239
 197	 242
 198	 209
 198	 222
 198	 237
 198	 238
 198	 243
 198	 248
 199	 212
 199	 215
 199	 224
 200	 204
 200	 206
 200	 218
 200	 228
 200	 232
 200	 245
 201	 205
 201	 221
 201	 232
 201	 235
 201	 238
 201	 243
 201	 246
 202	 203
 202	 217
 202	 226
 202	 228
 202	 236
 202	 240
 202	 245
 203	 207
 203	 208
 203	 220
 203	 236
 203	 238
 204	 206
 204	 210
 204	 218
 205	 239
 205	 243
 205	 248
 206	 228
 206	 245
 206	 246
 206	 248
 206	 249
 207	 208
 207	 214
 207	 229
 207	 238
 207	 240
 208	 214
 208	 216
 208	 241
 209	 235
 209	 241
 210	 218
 210	 234
 211	 228
 211	 233
 211	 248
 212	 240
 212	 246
 212	 247
 213	 225
 213	 234
 214	 223
 214	 237
 214	 239
 215	 219
 215	 232
 215	 237
 216	 226
 216	 234
 217	 238
 217	 242
 217	 246
 217	 249
 218	 225
 218	 236
 218	 240
 218	 241
 218	 246
 220	 225
 220	 246
 221	 229
 221	 230
 221	 238
 221	 248
 222	 247
 223	 226
 223	 229
 224	 228
 226	 240
 227	 246
 228	 229
 228	 233
 228	 237
 229	 236
 229	 248
 230	 236
 230	 249
 231	 244
 231	 247
 232	 235
 233	 235
 233	 238
 233	 247
 234	 235
 235	 248
 238	 247
 239	 240
 240	 241
 241	 245
 242	 243
 242	 246
 242	 248
 244	 247
 245	 247
 245	 249
 246	 247
 247	 249
;
